pair_coeff ay1 ay1 0.0350000000 4.5000000000
pair_coeff ay2 ay2 0.0350000000 4.5000000000
pair_coeff sy1 sy1 0.0350000000 4.2000000000
pair_coeff sy2 sy2 0.0350000000 4.2000000000
pair_coeff oy7 oy7 0.0150000000 3.8000000000
pair_coeff oy8 oy8 0.0150000000 3.8000000000
pair_coeff oy1 oy1 0.0150000000 3.8000000000
pair_coeff oy2 oy2 0.0150000000 3.8000000000
pair_coeff oy3 oy3 0.0150000000 3.8000000000
pair_coeff oy9 oy9 0.0150000000 3.8000000000
pair_coeff oy5 oy5 0.0150000000 3.8000000000
pair_coeff oy4 oy4 0.0150000000 3.8000000000
pair_coeff oy6 oy6 0.0150000000 3.8000000000
pair_coeff hoy hoy 0.0130000000 1.0980000000
pair_coeff hok hok 0.0130000000 1.0980000000
pair_coeff oc24 oc24 0.1200000000 3.6000000000
pair_coeff k+ k+ 0.2000000000 4.1000000000
pair_coeff oap1 oap1 0.0550000000 3.5000000000
pair_coeff pap pap 0.2500000000 4.5000000000
pair_coeff na+ na+ 0.0800000000 3.3000000000
pair_coeff hop hop 0.0130000000 1.0980000000
pair_coeff oc11 oc11 0.0800000000 3.4000000000
pair_coeff s_m s_m 0.2500000000 4.3000000000
pair_coeff oc15 oc15 0.0400000000 3.5000000000
pair_coeff o* o* 0.2600000000 3.6100000000
pair_coeff ca+t ca+t 0.2400000000 3.7000000000
pair_coeff sc2 sc2 0.0800000000 4.2000000000
pair_coeff sc3 sc3 0.0800000000 4.2000000000
pair_coeff oc12 oc12 0.0900000000 3.6500000000
pair_coeff oc13 oc13 0.0500000000 3.6500000000
pair_coeff h* h* 0.0130000000 1.0980000000
pair_coeff oc14 oc14 0.0500000000 3.6500000000
pair_coeff ac3 ac3 0.0350000000 4.7000000000
pair_coeff ca+m ca+m 0.2400000000 3.6500000000
pair_coeff oc21 oc21 0.0400000000 3.5000000000
pair_coeff oc18 oc18 0.0400000000 3.5000000000
pair_coeff oc16 oc16 0.0400000000 3.5000000000
pair_coeff oc20 oc20 0.0400000000 3.5000000000
pair_coeff ca+g ca+g 0.2400000000 3.6000000000
pair_coeff oc19 oc19 0.0400000000 3.5000000000
pair_coeff oc17 oc17 0.0400000000 3.5000000000
pair_coeff s' s' 0.2500000000 4.0270000000
pair_coeff oc22 oc22 0.1200000000 3.7000000000
pair_coeff ca+h ca+h 0.2400000000 3.5500000000
pair_coeff ac2 ac2 0.0350000000 4.3000000000
pair_coeff ca+e ca+e 0.2400000000 3.6500000000
pair_coeff oc10 oc10 0.1200000000 3.6000000000
pair_coeff oc7 oc7 0.1200000000 3.6000000000
pair_coeff hoc hoc 0.0130000000 1.0980000000
pair_coeff oc9 oc9 0.1200000000 3.6000000000
pair_coeff oc6 oc6 0.1200000000 3.6000000000
pair_coeff sc4 sc4 0.0800000000 4.2000000000
pair_coeff oc8 oc8 0.1200000000 3.6000000000
pair_coeff oc5 oc5 0.1200000000 3.6000000000
pair_coeff oap2 oap2 0.0800000000 3.8000000000
pair_coeff ca++ ca++ 0.2400000000 3.7000000000
pair_coeff sc1 sc1 0.4000000000 4.8000000000
pair_coeff oc2 oc2 0.0600000000 3.8000000000
pair_coeff oc1 oc1 0.0600000000 3.4000000000
pair_coeff oc23 oc23 0.0400000000 3.6000000000
pair_coeff ce1 ce1 0.0540000000 4.0100000000
pair_coeff oe1 oe1 0.3000000000 3.3000000000
pair_coeff he1 he1 0.0250000000 2.9000000000
pair_coeff ac1 ac1 0.5000000000 4.8000000000
pair_coeff oc3 oc3 0.0600000000 3.6200000000
pair_coeff oc4 oc4 0.0600000000 3.5200000000
pair_coeff ca+a ca+a 0.2400000000 3.5500000000
pair_coeff Al Al 3.2600000000 2.9760000000
pair_coeff Ag Ag 3.7300000000 3.0050000000
pair_coeff Pd Pd 5.0300000000 2.8680000000
pair_coeff Pt Pt 6.3800000000 2.8960000000
pair_coeff Au Au 4.3200000000 3.0030000000
pair_coeff Ni Ni 4.5900000000 2.5980000000
pair_coeff Cu Cu 3.8400000000 2.6610000000
pair_coeff Pb Pb 2.4700000000 3.6220000000

angle_coeff  oy8-ay1-oy7 92.9000 170.0000 0.0000 0.0000
angle_coeff  oy8-ay1-oy7 ba 0.0000 0.0000 2.0212 2.0433
angle_coeff  oy8-ay1-oy7 bb 0.0000 2.0212 2.0433

bond_coeff  ay1-oy7 2.0212 430.0000 0.0000 0.0000
bond_coeff  ay1-oy8 2.0433 430.0000 0.0000 0.0000
bond_coeff  ay1-oy4 2.0412 430.0000 0.0000 0.0000
bond_coeff  ay1-oy9 2.0128 430.0000 0.0000 0.0000
bond_coeff  ay1-oy5 2.0234 430.0000 0.0000 0.0000
bond_coeff  ay1-oy6 2.0170 430.0000 0.0000 0.0000
bond_coeff  ay2-oy8 2.0234 430.0000 0.0000 0.0000
bond_coeff  ay2-oy7 2.0412 430.0000 0.0000 0.0000
bond_coeff  ay2-oy9 2.0170 430.0000 0.0000 0.0000
bond_coeff  ay2-oy6 2.0128 430.0000 0.0000 0.0000
bond_coeff  ay2-oy5 2.0433 430.0000 0.0000 0.0000
bond_coeff  ay2-oy4 2.0212 430.0000 0.0000 0.0000
bond_coeff  sy1-oy7 1.7315 430.0000 0.0000 0.0000
bond_coeff  sy1-oy1 1.7262 430.0000 0.0000 0.0000
bond_coeff  sy1-oy2 1.7167 430.0000 0.0000 0.0000
bond_coeff  sy2-oy8 1.7304 430.0000 0.0000 0.0000
bond_coeff  sy2-oy1 1.7283 430.0000 0.0000 0.0000
bond_coeff  sy2-oy3 1.7230 430.0000 0.0000 0.0000
bond_coeff  sy1-oy3 1.7430 430.0000 0.0000 0.0000
bond_coeff  sy2-oy2 1.7230 430.0000 0.0000 0.0000
bond_coeff  oy9-hoy 0.9290 495.0000 0.0000 0.0000
bond_coeff  oy5-hok 0.9290 495.0000 0.0000 0.0000
bond_coeff  oy4-hok 0.9290 495.0000 0.0000 0.0000
bond_coeff  oy6-hok 0.9290 495.0000 0.0000 0.0000
bond_coeff  sy1-oc24 1.6800 285.0000 0.0000 0.0000
bond_coeff  sy2-oc24 1.6800 285.0000 0.0000 0.0000
bond_coeff  hoy-oc24 0.9450 495.0000 0.0000 0.0000
bond_coeff  sy1-oy4 1.7315 430.0000 0.0000 0.0000
bond_coeff  sy2-oy5 1.7304 430.0000 0.0000 0.0000
bond_coeff  oy6-hoy 0.9290 495.0000 0.0000 0.0000
bond_coeff  oap1-pap 1.5700 430.0000 0.0000 0.0000
bond_coeff  oap1-hop 0.9400 500.0000 0.0000 0.0000
bond_coeff  oc11-s' 1.5000 550.0000 0.0000 0.0000
bond_coeff  s_m-oc15 1.5000 540.0000 0.0000 0.0000
bond_coeff  o*-h* 0.9700 563.2800 -1428.2200 1902.1200
bond_coeff  sc2-oc12 1.6900 430.0000 0.0000 0.0000
bond_coeff  sc2-oc13 1.6200 430.0000 0.0000 0.0000
bond_coeff  sc3-oc12 1.6900 430.0000 0.0000 0.0000
bond_coeff  sc3-oc14 1.6880 430.0000 0.0000 0.0000
bond_coeff  sc3-oc22 1.6300 430.0000 0.0000 0.0000
bond_coeff  hoy-oc14 0.9450 495.0000 0.0000 0.0000
bond_coeff  ac3-oc18 1.9600 430.0000 0.0000 0.0000
bond_coeff  ac3-oc16 1.9600 430.0000 0.0000 0.0000
bond_coeff  ac3-oc21 1.9600 430.0000 0.0000 0.0000
bond_coeff  ac3-oc19 1.9600 430.0000 0.0000 0.0000
bond_coeff  ac3-oc17 1.9600 430.0000 0.0000 0.0000
bond_coeff  ac3-oc20 1.9600 430.0000 0.0000 0.0000
bond_coeff  hoy-oc21 0.9290 495.0000 0.0000 0.0000
bond_coeff  hoy-oc18 0.9290 495.0000 0.0000 0.0000
bond_coeff  hoy-oc16 0.9290 495.0000 0.0000 0.0000
bond_coeff  hoy-oc20 0.9290 495.0000 0.0000 0.0000
bond_coeff  hoy-oc19 0.9290 495.0000 0.0000 0.0000
bond_coeff  hoy-oc17 0.9290 495.0000 0.0000 0.0000
bond_coeff  ac2-oc10 2.0200 350.0000 0.0000 0.0000
bond_coeff  ac2-oc7 2.0200 350.0000 0.0000 0.0000
bond_coeff  ac2-oc9 2.0200 350.0000 0.0000 0.0000
bond_coeff  ac2-oc6 2.0200 350.0000 0.0000 0.0000
bond_coeff  ac2-oc8 2.0200 350.0000 0.0000 0.0000
bond_coeff  ac2-oc5 2.0200 350.0000 0.0000 0.0000
bond_coeff  oc10-hoc 0.9290 495.0000 0.0000 0.0000
bond_coeff  oc7-hoc 0.9290 495.0000 0.0000 0.0000
bond_coeff  hoc-oc9 0.9290 495.0000 0.0000 0.0000
bond_coeff  hoc-oc6 0.9290 495.0000 0.0000 0.0000
bond_coeff  oc24-sc4 1.6800 285.0000 0.0000 0.0000
bond_coeff  sc4-oc23 1.6800 285.0000 0.0000 0.0000
bond_coeff  hoc-oc8 0.9290 495.0000 0.0000 0.0000
bond_coeff  hoc-oc5 0.9290 495.0000 0.0000 0.0000
bond_coeff  hop-oap2 0.9400 500.0000 0.0000 0.0000
bond_coeff  sc1-oc1 1.6800 250.0000 0.0000 0.0000
bond_coeff  ce1-oe1 1.4050 400.3954 -835.1951 1313.0142
bond_coeff  ce1-he1 1.0850 345.0000 -691.8900 844.6000
bond_coeff  ce1-ce1 1.5150 299.6700 -501.7700 679.8100
bond_coeff  ac1-oc3 1.9800 180.0000 0.0000 0.0000
bond_coeff  ac1-oc4 1.8100 180.0000 0.0000 0.0000
bond_coeff  hoc-oc4 0.9290 495.0000 0.0000 0.0000
angle_coeff  oy7-ay1-oy8 92.9000 170.0000 0.0000 0.0000
angle_coeff  oy7-ay1-oy4 78.4000 170.0000 0.0000 0.0000
angle_coeff  oy7-ay1-oy9 94.7000 170.0000 0.0000 0.0000
angle_coeff  oy7-ay1-oy5 166.7000 170.0000 0.0000 0.0000
angle_coeff  oy7-ay1-oy6 95.6000 170.0000 0.0000 0.0000
angle_coeff  oy8-ay1-oy4 98.2000 170.0000 0.0000 0.0000
angle_coeff  oy8-ay1-oy9 92.9000 170.0000 0.0000 0.0000
angle_coeff  oy8-ay1-oy5 78.4000 170.0000 0.0000 0.0000
angle_coeff  oy8-ay1-oy6 167.3000 170.0000 0.0000 0.0000
angle_coeff  oy9-ay1-oy4 167.1000 170.0000 0.0000 0.0000
angle_coeff  oy5-ay1-oy4 92.8000 170.0000 0.0000 0.0000
angle_coeff  oy4-ay1-oy6 92.7000 170.0000 0.0000 0.0000
angle_coeff  oy9-ay1-oy5 95.8000 170.0000 0.0000 0.0000
angle_coeff  oy9-ay1-oy6 77.0000 170.0000 0.0000 0.0000
angle_coeff  oy5-ay1-oy6 94.8000 170.0000 0.0000 0.0000
angle_coeff  oy7-ay2-oy8 92.8000 170.0000 0.0000 0.0000
angle_coeff  oy8-ay2-oy9 94.8000 170.0000 0.0000 0.0000
angle_coeff  oy8-ay2-oy6 95.8000 170.0000 0.0000 0.0000
angle_coeff  oy8-ay2-oy5 78.4000 170.0000 0.0000 0.0000
angle_coeff  oy8-ay2-oy4 166.7000 170.0000 0.0000 0.0000
angle_coeff  oy7-ay2-oy9 92.7000 170.0000 0.0000 0.0000
angle_coeff  oy7-ay2-oy6 167.1000 170.0000 0.0000 0.0000
angle_coeff  oy7-ay2-oy5 98.2000 170.0000 0.0000 0.0000
angle_coeff  oy7-ay2-oy4 78.4000 170.0000 0.0000 0.0000
angle_coeff  oy9-ay2-oy6 77.0000 170.0000 0.0000 0.0000
angle_coeff  oy9-ay2-oy5 167.3000 170.0000 0.0000 0.0000
angle_coeff  oy9-ay2-oy4 95.6000 170.0000 0.0000 0.0000
angle_coeff  oy5-ay2-oy6 92.9000 170.0000 0.0000 0.0000
angle_coeff  oy4-ay2-oy6 94.7000 170.0000 0.0000 0.0000
angle_coeff  oy5-ay2-oy4 92.9000 170.0000 0.0000 0.0000
angle_coeff  oy7-sy1-oy1 110.0000 170.0000 0.0000 0.0000
angle_coeff  oy7-sy1-oy2 112.5000 170.0000 0.0000 0.0000
angle_coeff  oy1-sy1-oy2 110.0000 170.0000 0.0000 0.0000
angle_coeff  oy8-sy2-oy1 110.2000 170.0000 0.0000 0.0000
angle_coeff  oy8-sy2-oy3 110.4000 170.0000 0.0000 0.0000
angle_coeff  oy1-sy2-oy3 107.3000 170.0000 0.0000 0.0000
angle_coeff  oy7-sy1-oy3 110.3000 170.0000 0.0000 0.0000
angle_coeff  oy2-sy1-oy3 106.7000 170.0000 0.0000 0.0000
angle_coeff  oy8-sy2-oy2 112.2000 170.0000 0.0000 0.0000
angle_coeff  oy1-sy2-oy2 107.0000 170.0000 0.0000 0.0000
angle_coeff  oy2-sy2-oy3 109.6000 170.0000 0.0000 0.0000
angle_coeff  ay1-oy7-sy1 123.7000 170.0000 0.0000 0.0000
angle_coeff  ay1-oy8-ay2 101.6000 170.0000 0.0000 0.0000
angle_coeff  ay1-oy8-sy2 127.2000 170.0000 0.0000 0.0000
angle_coeff  ay2-oy8-sy2 123.8000 170.0000 0.0000 0.0000
angle_coeff  sy1-oy1-sy2 128.8000 170.0000 0.0000 0.0000
angle_coeff  sy1-oy2-sy2 139.9000 170.0000 0.0000 0.0000
angle_coeff  sy1-oy3-sy2 128.2000 170.0000 0.0000 0.0000
angle_coeff  ay1-oy7-ay2 101.6000 170.0000 0.0000 0.0000
angle_coeff  ay2-oy7-sy1 127.5000 170.0000 0.0000 0.0000
angle_coeff  ay2-oy9-hoy 126.0000 45.0000 0.0000 0.0000
angle_coeff  ay2-oy5-hok 126.0000 45.0000 0.0000 0.0000
angle_coeff  ay1-oy4-hok 126.0000 45.0000 0.0000 0.0000
angle_coeff  ay2-oy6-hok 126.0000 45.0000 0.0000 0.0000
angle_coeff  ay1-oy9-ay2 103.0000 170.0000 0.0000 0.0000
angle_coeff  ay1-oy9-hoy 126.0000 45.0000 0.0000 0.0000
angle_coeff  ay1-oy5-ay2 101.6000 170.0000 0.0000 0.0000
angle_coeff  ay1-oy5-hok 126.0000 45.0000 0.0000 0.0000
angle_coeff  ay1-oy4-ay2 101.6000 170.0000 0.0000 0.0000
angle_coeff  ay2-oy4-hok 126.0000 45.0000 0.0000 0.0000
angle_coeff  ay1-oy6-ay2 103.0000 170.0000 0.0000 0.0000
angle_coeff  ay1-oy6-hok 126.0000 45.0000 0.0000 0.0000
angle_coeff  oy1-sy1-oc24 109.5000 100.0000 0.0000 0.0000
angle_coeff  oy1-sy1-oy3 107.0000 170.0000 0.0000 0.0000
angle_coeff  oy7-sy1-oc24 109.5000 100.0000 0.0000 0.0000
angle_coeff  oy3-sy1-oc24 109.5000 100.0000 0.0000 0.0000
angle_coeff  oy8-sy2-oc24 109.5000 100.0000 0.0000 0.0000
angle_coeff  oc24-sy2-oc24 109.5000 100.0000 0.0000 0.0000
angle_coeff  oy2-sy2-oc24 109.5000 100.0000 0.0000 0.0000
angle_coeff  sy2-oc24-hoy 115.0000 50.0000 0.0000 0.0000
angle_coeff  sy1-oc24-hoy 115.0000 50.0000 0.0000 0.0000
angle_coeff  oy2-sy1-oy4 112.5000 170.0000 0.0000 0.0000
angle_coeff  oy3-sy1-oy4 110.3000 170.0000 0.0000 0.0000
angle_coeff  oy4-sy1-oc24 109.5000 100.0000 0.0000 0.0000
angle_coeff  oy2-sy1-oc24 109.5000 100.0000 0.0000 0.0000
angle_coeff  oy1-sy2-oy5 110.2000 170.0000 0.0000 0.0000
angle_coeff  oy3-sy2-oy5 110.4000 170.0000 0.0000 0.0000
angle_coeff  oy2-sy2-oy5 112.2000 170.0000 0.0000 0.0000
angle_coeff  ay1-oy4-sy1 127.5000 170.0000 0.0000 0.0000
angle_coeff  ay2-oy5-sy2 127.2000 170.0000 0.0000 0.0000
angle_coeff  ay1-oy5-sy2 123.8000 170.0000 0.0000 0.0000
angle_coeff  ay1-oy6-hoy 126.0000 45.0000 0.0000 0.0000
angle_coeff  ay2-oy6-hoy 126.0000 45.0000 0.0000 0.0000
angle_coeff  oy1-sy1-oy4 110.0000 170.0000 0.0000 0.0000
angle_coeff  oy5-sy2-oc24 109.5000 100.0000 0.0000 0.0000
angle_coeff  oy1-sy2-oc24 109.5000 100.0000 0.0000 0.0000
angle_coeff  oy3-sy2-oc24 109.5000 100.0000 0.0000 0.0000
angle_coeff  ay2-oy4-sy1 123.7000 170.0000 0.0000 0.0000
angle_coeff  oc24-sy1-oc24 109.5000 100.0000 0.0000 0.0000
angle_coeff  oap1-pap-oap1 109.4700 125.0000 0.0000 0.0000
angle_coeff  pap-oap1-hop 115.0000 50.0000 0.0000 0.0000
angle_coeff  oc15-s_m-oc15 109.4700 135.0000 0.0000 0.0000
angle_coeff  h*-o*-h* 103.7000 49.8400 -11.6000 -8.0000
angle_coeff  oc12-sc2-oc12 100.2000 170.0000 0.0000 0.0000
angle_coeff  oc12-sc2-oc13 111.5000 170.0000 0.0000 0.0000
angle_coeff  oc13-sc2-oc13 112.5000 170.0000 0.0000 0.0000
angle_coeff  oc12-sc3-oc14 111.0000 170.0000 0.0000 0.0000
angle_coeff  oc12-sc3-oc22 107.0000 170.0000 0.0000 0.0000
angle_coeff  oc14-sc3-oc22 111.0000 170.0000 0.0000 0.0000
angle_coeff  sc2-oc12-sc3 139.0000 170.0000 0.0000 0.0000
angle_coeff  sc2-oc12-sc2 144.0000 170.0000 0.0000 0.0000
angle_coeff  hoy-oc14-sc3 125.0000 50.0000 0.0000 0.0000
angle_coeff  oc18-ac3-oc16 95.3000 170.0000 0.0000 0.0000
angle_coeff  oc21-ac3-oc18 95.3000 170.0000 0.0000 0.0000
angle_coeff  oc18-ac3-oc19 180.0000 170.0000 0.0000 0.0000
angle_coeff  oc18-ac3-oc17 84.7000 170.0000 0.0000 0.0000
angle_coeff  oc18-ac3-oc20 84.7000 170.0000 0.0000 0.0000
angle_coeff  oc21-ac3-oc16 95.3000 170.0000 0.0000 0.0000
angle_coeff  oc16-ac3-oc19 84.7000 170.0000 0.0000 0.0000
angle_coeff  oc16-ac3-oc17 180.0000 170.0000 0.0000 0.0000
angle_coeff  oc16-ac3-oc20 84.7000 170.0000 0.0000 0.0000
angle_coeff  oc21-ac3-oc19 84.7000 170.0000 0.0000 0.0000
angle_coeff  oc21-ac3-oc17 84.7000 170.0000 0.0000 0.0000
angle_coeff  oc21-ac3-oc20 180.0000 170.0000 0.0000 0.0000
angle_coeff  oc19-ac3-oc17 95.3000 170.0000 0.0000 0.0000
angle_coeff  oc20-ac3-oc19 95.3000 170.0000 0.0000 0.0000
angle_coeff  oc20-ac3-oc17 95.3000 170.0000 0.0000 0.0000
angle_coeff  hoy-oc21-ac3 140.0000 50.0000 0.0000 0.0000
angle_coeff  hoy-oc18-ac3 140.0000 50.0000 0.0000 0.0000
angle_coeff  oc12-sc3-oc12 107.0000 170.0000 0.0000 0.0000
angle_coeff  hoy-oc16-ac3 140.0000 50.0000 0.0000 0.0000
angle_coeff  hoy-oc20-ac3 140.0000 50.0000 0.0000 0.0000
angle_coeff  hoy-oc19-ac3 140.0000 50.0000 0.0000 0.0000
angle_coeff  hoy-oc17-ac3 140.0000 50.0000 0.0000 0.0000
angle_coeff  oc11-s'-oc11 109.5000 135.0000 0.0000 0.0000
angle_coeff  sc3-oc12-sc3 174.5000 170.0000 0.0000 0.0000
angle_coeff  oc10-ac2-oc7 180.0000 80.0000 0.0000 0.0000
angle_coeff  oc10-ac2-oc9 90.0000 80.0000 0.0000 0.0000
angle_coeff  oc10-ac2-oc6 90.0000 80.0000 0.0000 0.0000
angle_coeff  oc10-ac2-oc8 90.0000 80.0000 0.0000 0.0000
angle_coeff  oc10-ac2-oc5 90.0000 80.0000 0.0000 0.0000
angle_coeff  oc7-ac2-oc9 90.0000 80.0000 0.0000 0.0000
angle_coeff  oc7-ac2-oc6 90.0000 80.0000 0.0000 0.0000
angle_coeff  oc7-ac2-oc8 90.0000 80.0000 0.0000 0.0000
angle_coeff  oc7-ac2-oc5 90.0000 80.0000 0.0000 0.0000
angle_coeff  oc9-ac2-oc6 180.0000 80.0000 0.0000 0.0000
angle_coeff  oc9-ac2-oc8 90.0000 80.0000 0.0000 0.0000
angle_coeff  oc9-ac2-oc5 90.0000 80.0000 0.0000 0.0000
angle_coeff  oc6-ac2-oc8 90.0000 80.0000 0.0000 0.0000
angle_coeff  oc6-ac2-oc5 90.0000 80.0000 0.0000 0.0000
angle_coeff  oc8-ac2-oc5 180.0000 80.0000 0.0000 0.0000
angle_coeff  ac2-oc10-hoc 115.0000 40.0000 0.0000 0.0000
angle_coeff  ac2-oc7-hoc 115.0000 40.0000 0.0000 0.0000
angle_coeff  ac2-oc9-hoc 115.0000 40.0000 0.0000 0.0000
angle_coeff  ac2-oc6-hoc 115.0000 40.0000 0.0000 0.0000
angle_coeff  hoy-oc24-sc4 115.0000 50.0000 0.0000 0.0000
angle_coeff  oc24-sc4-oc24 109.5000 100.0000 0.0000 0.0000
angle_coeff  oc24-sc4-oc23 109.5000 100.0000 0.0000 0.0000
angle_coeff  ac2-oc8-hoc 115.0000 40.0000 0.0000 0.0000
angle_coeff  ac2-oc5-hoc 115.0000 40.0000 0.0000 0.0000
angle_coeff  oc1-sc1-oc1 109.5000 160.0000 0.0000 0.0000
angle_coeff  sc4-oc23-sc4 149.0000 100.0000 0.0000 0.0000
angle_coeff  oc23-sc4-oc23 109.5000 100.0000 0.0000 0.0000
angle_coeff  oe1-ce1-he1 108.7280 58.5446 -10.8088 -12.4006
angle_coeff  he1-ce1-he1 107.6600 39.6410 -12.9210 -2.4318
angle_coeff  ce1-oe1-ce1 106.0000 35.7454 -10.0067 -6.2720
angle_coeff  ce1-ce1-oe1 107.5000 54.5381 -8.3642 -13.0838
angle_coeff  ce1-ce1-he1 110.7700 41.4530 -10.6040 5.1290
angle_coeff  oc3-ac1-oc3 111.5000 110.0000 0.0000 0.0000
angle_coeff  oc3-ac1-oc4 105.0000 110.0000 0.0000 0.0000
angle_coeff  oc4-ac1-oc4 121.0000 110.0000 0.0000 0.0000
angle_coeff  ac1-oc3-ac1 156.7000 110.0000 0.0000 0.0000
angle_coeff  hoc-oc4-ac1 115.0000 40.0000 0.0000 0.0000
dihedral_coeff  oy8-ay1-oy7-sy1 0.0000 0.0000 0.0000 0.0000 0.0000 0.0000
dihedral_coeff  oy4-ay1-oy7-sy1 0.0000 0.0000 0.0000 0.0000 0.0000 0.0000
dihedral_coeff  oy9-ay1-oy7-sy1 0.0000 0.0000 0.0000 0.0000 0.0000 0.0000
dihedral_coeff  oy5-ay1-oy7-sy1 0.0000 0.0000 0.0000 0.0000 0.0000 0.0000
dihedral_coeff  oy6-ay1-oy7-sy1 0.0000 0.0000 0.0000 0.0000 0.0000 0.0000
dihedral_coeff  oy7-ay1-oy8-ay2 0.0000 0.0000 0.0000 0.0000 0.0000 0.0000
dihedral_coeff  oy7-ay1-oy8-sy2 0.0000 0.0000 0.0000 0.0000 0.0000 0.0000
dihedral_coeff  oy4-ay1-oy8-ay2 0.0000 0.0000 0.0000 0.0000 0.0000 0.0000
dihedral_coeff  oy4-ay1-oy8-sy2 0.0000 0.0000 0.0000 0.0000 0.0000 0.0000
dihedral_coeff  oy9-ay1-oy8-ay2 0.0000 0.0000 0.0000 0.0000 0.0000 0.0000
dihedral_coeff  oy9-ay1-oy8-sy2 0.0000 0.0000 0.0000 0.0000 0.0000 0.0000
dihedral_coeff  oy5-ay1-oy8-ay2 0.0000 0.0000 0.0000 0.0000 0.0000 0.0000
dihedral_coeff  oy5-ay1-oy8-sy2 0.0000 0.0000 0.0000 0.0000 0.0000 0.0000
dihedral_coeff  oy6-ay1-oy8-ay2 0.0000 0.0000 0.0000 0.0000 0.0000 0.0000
dihedral_coeff  oy6-ay1-oy8-sy2 0.0000 0.0000 0.0000 0.0000 0.0000 0.0000
dihedral_coeff  oy7-ay1-oy4-hok 0.0000 0.0000 0.0000 0.0000 0.0000 0.0000
dihedral_coeff  oy8-ay1-oy4-hok 0.0000 0.0000 0.0000 0.0000 0.0000 0.0000
dihedral_coeff  oy9-ay1-oy4-hok 0.0000 0.0000 0.0000 0.0000 0.0000 0.0000
dihedral_coeff  oy5-ay1-oy4-hok 0.0000 0.0000 0.0000 0.0000 0.0000 0.0000
dihedral_coeff  oy6-ay1-oy4-hok 0.0000 0.0000 0.0000 0.0000 0.0000 0.0000
dihedral_coeff  oy7-ay1-oy9-ay2 0.0000 0.0000 0.0000 0.0000 0.0000 0.0000
dihedral_coeff  oy7-ay1-oy9-hoy 0.0000 0.0000 0.0000 0.0000 0.0000 0.0000
dihedral_coeff  oy8-ay1-oy9-ay2 0.0000 0.0000 0.0000 0.0000 0.0000 0.0000
dihedral_coeff  oy8-ay1-oy9-hoy 0.0000 0.0000 0.0000 0.0000 0.0000 0.0000
dihedral_coeff  oy4-ay1-oy9-ay2 0.0000 0.0000 0.0000 0.0000 0.0000 0.0000
dihedral_coeff  oy4-ay1-oy9-hoy 0.0000 0.0000 0.0000 0.0000 0.0000 0.0000
dihedral_coeff  oy5-ay1-oy9-ay2 0.0000 0.0000 0.0000 0.0000 0.0000 0.0000
dihedral_coeff  oy5-ay1-oy9-hoy 0.0000 0.0000 0.0000 0.0000 0.0000 0.0000
dihedral_coeff  oy6-ay1-oy9-ay2 0.0000 0.0000 0.0000 0.0000 0.0000 0.0000
dihedral_coeff  oy6-ay1-oy9-hoy 0.0000 0.0000 0.0000 0.0000 0.0000 0.0000
dihedral_coeff  oy7-ay1-oy5-ay2 0.0000 0.0000 0.0000 0.0000 0.0000 0.0000
dihedral_coeff  oy7-ay1-oy5-hok 0.0000 0.0000 0.0000 0.0000 0.0000 0.0000
dihedral_coeff  oy8-ay1-oy5-ay2 0.0000 0.0000 0.0000 0.0000 0.0000 0.0000
dihedral_coeff  oy8-ay1-oy5-hok 0.0000 0.0000 0.0000 0.0000 0.0000 0.0000
dihedral_coeff  oy4-ay1-oy5-ay2 0.0000 0.0000 0.0000 0.0000 0.0000 0.0000
dihedral_coeff  oy4-ay1-oy5-hok 0.0000 0.0000 0.0000 0.0000 0.0000 0.0000
dihedral_coeff  oy9-ay1-oy5-ay2 0.0000 0.0000 0.0000 0.0000 0.0000 0.0000
dihedral_coeff  oy9-ay1-oy5-hok 0.0000 0.0000 0.0000 0.0000 0.0000 0.0000
dihedral_coeff  oy6-ay1-oy5-ay2 0.0000 0.0000 0.0000 0.0000 0.0000 0.0000
dihedral_coeff  oy6-ay1-oy5-hok 0.0000 0.0000 0.0000 0.0000 0.0000 0.0000
dihedral_coeff  oy7-ay1-oy6-ay2 0.0000 0.0000 0.0000 0.0000 0.0000 0.0000
dihedral_coeff  oy7-ay1-oy6-hok 0.0000 0.0000 0.0000 0.0000 0.0000 0.0000
dihedral_coeff  oy8-ay1-oy6-ay2 0.0000 0.0000 0.0000 0.0000 0.0000 0.0000
dihedral_coeff  oy8-ay1-oy6-hok 0.0000 0.0000 0.0000 0.0000 0.0000 0.0000
dihedral_coeff  oy4-ay1-oy6-ay2 0.0000 0.0000 0.0000 0.0000 0.0000 0.0000
dihedral_coeff  oy4-ay1-oy6-hok 0.0000 0.0000 0.0000 0.0000 0.0000 0.0000
dihedral_coeff  oy9-ay1-oy6-ay2 0.0000 0.0000 0.0000 0.0000 0.0000 0.0000
dihedral_coeff  oy9-ay1-oy6-hok 0.0000 0.0000 0.0000 0.0000 0.0000 0.0000
dihedral_coeff  oy5-ay1-oy6-ay2 0.0000 0.0000 0.0000 0.0000 0.0000 0.0000
dihedral_coeff  oy5-ay1-oy6-hok 0.0000 0.0000 0.0000 0.0000 0.0000 0.0000
dihedral_coeff  oy7-ay2-oy8-ay1 0.0000 0.0000 0.0000 0.0000 0.0000 0.0000
dihedral_coeff  oy7-ay2-oy8-sy2 0.0000 0.0000 0.0000 0.0000 0.0000 0.0000
dihedral_coeff  oy9-ay2-oy8-ay1 0.0000 0.0000 0.0000 0.0000 0.0000 0.0000
dihedral_coeff  oy9-ay2-oy8-sy2 0.0000 0.0000 0.0000 0.0000 0.0000 0.0000
dihedral_coeff  oy6-ay2-oy8-ay1 0.0000 0.0000 0.0000 0.0000 0.0000 0.0000
dihedral_coeff  oy6-ay2-oy8-sy2 0.0000 0.0000 0.0000 0.0000 0.0000 0.0000
dihedral_coeff  oy5-ay2-oy8-ay1 0.0000 0.0000 0.0000 0.0000 0.0000 0.0000
dihedral_coeff  oy5-ay2-oy8-sy2 0.0000 0.0000 0.0000 0.0000 0.0000 0.0000
dihedral_coeff  oy4-ay2-oy8-ay1 0.0000 0.0000 0.0000 0.0000 0.0000 0.0000
dihedral_coeff  oy4-ay2-oy8-sy2 0.0000 0.0000 0.0000 0.0000 0.0000 0.0000
dihedral_coeff  oy8-ay2-oy7-ay1 0.0000 0.0000 0.0000 0.0000 0.0000 0.0000
dihedral_coeff  oy8-ay2-oy7-sy1 0.0000 0.0000 0.0000 0.0000 0.0000 0.0000
dihedral_coeff  oy9-ay2-oy7-ay1 0.0000 0.0000 0.0000 0.0000 0.0000 0.0000
dihedral_coeff  oy9-ay2-oy7-sy1 0.0000 0.0000 0.0000 0.0000 0.0000 0.0000
dihedral_coeff  oy6-ay2-oy7-ay1 0.0000 0.0000 0.0000 0.0000 0.0000 0.0000
dihedral_coeff  oy6-ay2-oy7-sy1 0.0000 0.0000 0.0000 0.0000 0.0000 0.0000
dihedral_coeff  oy5-ay2-oy7-ay1 0.0000 0.0000 0.0000 0.0000 0.0000 0.0000
dihedral_coeff  oy5-ay2-oy7-sy1 0.0000 0.0000 0.0000 0.0000 0.0000 0.0000
dihedral_coeff  oy4-ay2-oy7-ay1 0.0000 0.0000 0.0000 0.0000 0.0000 0.0000
dihedral_coeff  oy4-ay2-oy7-sy1 0.0000 0.0000 0.0000 0.0000 0.0000 0.0000
dihedral_coeff  oy8-ay2-oy9-hoy 0.0000 0.0000 0.0000 0.0000 0.0000 0.0000
dihedral_coeff  oy7-ay2-oy9-hoy 0.0000 0.0000 0.0000 0.0000 0.0000 0.0000
dihedral_coeff  oy6-ay2-oy9-hoy 0.0000 0.0000 0.0000 0.0000 0.0000 0.0000
dihedral_coeff  oy5-ay2-oy9-hoy 0.0000 0.0000 0.0000 0.0000 0.0000 0.0000
dihedral_coeff  oy4-ay2-oy9-hoy 0.0000 0.0000 0.0000 0.0000 0.0000 0.0000
dihedral_coeff  oy8-ay2-oy6-hok 0.0000 0.0000 0.0000 0.0000 0.0000 0.0000
dihedral_coeff  oy7-ay2-oy6-hok 0.0000 0.0000 0.0000 0.0000 0.0000 0.0000
dihedral_coeff  oy9-ay2-oy6-hok 0.0000 0.0000 0.0000 0.0000 0.0000 0.0000
dihedral_coeff  oy5-ay2-oy6-hok 0.0000 0.0000 0.0000 0.0000 0.0000 0.0000
dihedral_coeff  oy4-ay2-oy6-hok 0.0000 0.0000 0.0000 0.0000 0.0000 0.0000
dihedral_coeff  oy8-ay2-oy5-ay1 0.0000 0.0000 0.0000 0.0000 0.0000 0.0000
dihedral_coeff  oy8-ay2-oy5-hok 0.0000 0.0000 0.0000 0.0000 0.0000 0.0000
dihedral_coeff  oy7-ay2-oy5-ay1 0.0000 0.0000 0.0000 0.0000 0.0000 0.0000
dihedral_coeff  oy7-ay2-oy5-hok 0.0000 0.0000 0.0000 0.0000 0.0000 0.0000
dihedral_coeff  oy9-ay2-oy5-ay1 0.0000 0.0000 0.0000 0.0000 0.0000 0.0000
dihedral_coeff  oy9-ay2-oy5-hok 0.0000 0.0000 0.0000 0.0000 0.0000 0.0000
dihedral_coeff  oy6-ay2-oy5-ay1 0.0000 0.0000 0.0000 0.0000 0.0000 0.0000
dihedral_coeff  oy6-ay2-oy5-hok 0.0000 0.0000 0.0000 0.0000 0.0000 0.0000
dihedral_coeff  oy4-ay2-oy5-ay1 0.0000 0.0000 0.0000 0.0000 0.0000 0.0000
dihedral_coeff  oy4-ay2-oy5-hok 0.0000 0.0000 0.0000 0.0000 0.0000 0.0000
dihedral_coeff  oy8-ay2-oy4-ay1 0.0000 0.0000 0.0000 0.0000 0.0000 0.0000
dihedral_coeff  oy8-ay2-oy4-hok 0.0000 0.0000 0.0000 0.0000 0.0000 0.0000
dihedral_coeff  oy7-ay2-oy4-ay1 0.0000 0.0000 0.0000 0.0000 0.0000 0.0000
dihedral_coeff  oy7-ay2-oy4-hok 0.0000 0.0000 0.0000 0.0000 0.0000 0.0000
dihedral_coeff  oy9-ay2-oy4-ay1 0.0000 0.0000 0.0000 0.0000 0.0000 0.0000
dihedral_coeff  oy9-ay2-oy4-hok 0.0000 0.0000 0.0000 0.0000 0.0000 0.0000
dihedral_coeff  oy6-ay2-oy4-ay1 0.0000 0.0000 0.0000 0.0000 0.0000 0.0000
dihedral_coeff  oy6-ay2-oy4-hok 0.0000 0.0000 0.0000 0.0000 0.0000 0.0000
dihedral_coeff  oy5-ay2-oy4-ay1 0.0000 0.0000 0.0000 0.0000 0.0000 0.0000
dihedral_coeff  oy5-ay2-oy4-hok 0.0000 0.0000 0.0000 0.0000 0.0000 0.0000
dihedral_coeff  oy4-ay1-oy7-ay2 0.0000 0.0000 0.0000 0.0000 0.0000 0.0000
dihedral_coeff  oy7-ay1-oy4-ay2 0.0000 0.0000 0.0000 0.0000 0.0000 0.0000
dihedral_coeff  oy8-ay2-oy9-ay1 0.0000 0.0000 0.0000 0.0000 0.0000 0.0000
dihedral_coeff  oy5-ay2-oy9-ay1 0.0000 0.0000 0.0000 0.0000 0.0000 0.0000
dihedral_coeff  oy6-ay2-oy9-ay1 0.0000 0.0000 0.0000 0.0000 0.0000 0.0000
dihedral_coeff  oy8-ay2-oy6-ay1 0.0000 0.0000 0.0000 0.0000 0.0000 0.0000
dihedral_coeff  oy5-ay2-oy6-ay1 0.0000 0.0000 0.0000 0.0000 0.0000 0.0000
dihedral_coeff  oy9-ay2-oy6-ay1 0.0000 0.0000 0.0000 0.0000 0.0000 0.0000
dihedral_coeff  oy1-sy1-oy7-ay1 0.0000 0.0000 0.0000 0.0000 0.0000 0.0000
dihedral_coeff  oy2-sy1-oy7-ay1 0.0000 0.0000 0.0000 0.0000 0.0000 0.0000
dihedral_coeff  oy7-sy1-oy1-sy2 0.0000 0.0000 0.0000 0.0000 0.0000 0.0000
dihedral_coeff  oy2-sy1-oy1-sy2 0.0000 0.0000 0.0000 0.0000 0.0000 0.0000
dihedral_coeff  oy7-sy1-oy2-sy2 0.0000 0.0000 0.0000 0.0000 0.0000 0.0000
dihedral_coeff  oy1-sy1-oy2-sy2 0.0000 0.0000 0.0000 0.0000 0.0000 0.0000
dihedral_coeff  oy1-sy2-oy8-ay1 0.0000 0.0000 0.0000 0.0000 0.0000 0.0000
dihedral_coeff  oy1-sy2-oy8-ay2 0.0000 0.0000 0.0000 0.0000 0.0000 0.0000
dihedral_coeff  oy3-sy2-oy8-ay1 0.0000 0.0000 0.0000 0.0000 0.0000 0.0000
dihedral_coeff  oy3-sy2-oy8-ay2 0.0000 0.0000 0.0000 0.0000 0.0000 0.0000
dihedral_coeff  oy8-sy2-oy1-sy1 0.0000 0.0000 0.0000 0.0000 0.0000 0.0000
dihedral_coeff  oy3-sy2-oy1-sy1 0.0000 0.0000 0.0000 0.0000 0.0000 0.0000
dihedral_coeff  oy8-sy2-oy3-sy1 0.0000 0.0000 0.0000 0.0000 0.0000 0.0000
dihedral_coeff  oy1-sy2-oy3-sy1 0.0000 0.0000 0.0000 0.0000 0.0000 0.0000
dihedral_coeff  oy7-sy1-oy3-sy2 0.0000 0.0000 0.0000 0.0000 0.0000 0.0000
dihedral_coeff  oy2-sy1-oy3-sy2 0.0000 0.0000 0.0000 0.0000 0.0000 0.0000
dihedral_coeff  oy3-sy1-oy7-ay2 0.0000 0.0000 0.0000 0.0000 0.0000 0.0000
dihedral_coeff  oy3-sy1-oy7-ay1 0.0000 0.0000 0.0000 0.0000 0.0000 0.0000
dihedral_coeff  oy2-sy1-oy7-ay2 0.0000 0.0000 0.0000 0.0000 0.0000 0.0000
dihedral_coeff  oy8-sy2-oy2-sy1 0.0000 0.0000 0.0000 0.0000 0.0000 0.0000
dihedral_coeff  oy1-sy2-oy2-sy1 0.0000 0.0000 0.0000 0.0000 0.0000 0.0000
dihedral_coeff  oy3-sy2-oy2-sy1 0.0000 0.0000 0.0000 0.0000 0.0000 0.0000
dihedral_coeff  oy2-sy2-oy8-ay2 0.0000 0.0000 0.0000 0.0000 0.0000 0.0000
dihedral_coeff  oy8-ay1-oy5-sy2 0.0000 0.0000 0.0000 0.0000 0.0000 0.0000
dihedral_coeff  oy4-ay1-oy5-sy2 0.0000 0.0000 0.0000 0.0000 0.0000 0.0000
dihedral_coeff  oy9-ay1-oy5-sy2 0.0000 0.0000 0.0000 0.0000 0.0000 0.0000
dihedral_coeff  oy8-ay1-oy4-sy1 0.0000 0.0000 0.0000 0.0000 0.0000 0.0000
dihedral_coeff  oy5-ay1-oy4-sy1 0.0000 0.0000 0.0000 0.0000 0.0000 0.0000
dihedral_coeff  oy9-ay1-oy4-sy1 0.0000 0.0000 0.0000 0.0000 0.0000 0.0000
dihedral_coeff  oc24-sy1-oy1-sy2 0.0000 0.0000 0.0000 0.0000 0.0000 0.0000
dihedral_coeff  oy3-sy1-oy1-sy2 0.0000 0.0000 0.0000 0.0000 0.0000 0.0000
dihedral_coeff  oy1-sy1-oy7-ay2 0.0000 0.0000 0.0000 0.0000 0.0000 0.0000
dihedral_coeff  oc24-sy1-oy7-ay1 0.0000 0.0000 0.0000 0.0000 0.0000 0.0000
dihedral_coeff  oc24-sy1-oy7-ay2 0.0000 0.0000 0.0000 0.0000 0.0000 0.0000
dihedral_coeff  oy1-sy1-oc24-hoy 0.0000 0.0000 0.0000 0.0000 0.0000 0.0000
dihedral_coeff  oy7-sy1-oc24-hoy 0.0000 0.0000 0.0000 0.0000 0.0000 0.0000
dihedral_coeff  oy3-sy1-oc24-hoy 0.0000 0.0000 0.0000 0.0000 0.0000 0.0000
dihedral_coeff  oy1-sy1-oy3-sy2 0.0000 0.0000 0.0000 0.0000 0.0000 0.0000
dihedral_coeff  oc24-sy1-oy3-sy2 0.0000 0.0000 0.0000 0.0000 0.0000 0.0000
dihedral_coeff  oc24-sy2-oy8-ay1 0.0000 0.0000 0.0000 0.0000 0.0000 0.0000
dihedral_coeff  oc24-sy2-oy8-ay2 0.0000 0.0000 0.0000 0.0000 0.0000 0.0000
dihedral_coeff  oy2-sy2-oy8-ay1 0.0000 0.0000 0.0000 0.0000 0.0000 0.0000
dihedral_coeff  oy8-sy2-oc24-hoy 0.0000 0.0000 0.0000 0.0000 0.0000 0.0000
dihedral_coeff  oc24-sy2-oc24-hoy 0.0000 0.0000 0.0000 0.0000 0.0000 0.0000
dihedral_coeff  oy2-sy2-oc24-hoy 0.0000 0.0000 0.0000 0.0000 0.0000 0.0000
dihedral_coeff  oc24-sy2-oy2-sy1 0.0000 0.0000 0.0000 0.0000 0.0000 0.0000
dihedral_coeff  oy6-ay1-oy7-ay2 0.0000 0.0000 0.0000 0.0000 0.0000 0.0000
dihedral_coeff  oy8-ay1-oy7-ay2 0.0000 0.0000 0.0000 0.0000 0.0000 0.0000
dihedral_coeff  oy5-ay1-oy7-ay2 0.0000 0.0000 0.0000 0.0000 0.0000 0.0000
dihedral_coeff  oy4-ay2-oy9-ay1 0.0000 0.0000 0.0000 0.0000 0.0000 0.0000
dihedral_coeff  oy7-ay2-oy9-ay1 0.0000 0.0000 0.0000 0.0000 0.0000 0.0000
dihedral_coeff  oy7-ay2-oy5-sy2 0.0000 0.0000 0.0000 0.0000 0.0000 0.0000
dihedral_coeff  oy8-ay2-oy5-sy2 0.0000 0.0000 0.0000 0.0000 0.0000 0.0000
dihedral_coeff  oy9-ay2-oy5-sy2 0.0000 0.0000 0.0000 0.0000 0.0000 0.0000
dihedral_coeff  oy4-ay2-oy5-sy2 0.0000 0.0000 0.0000 0.0000 0.0000 0.0000
dihedral_coeff  oy6-ay2-oy5-sy2 0.0000 0.0000 0.0000 0.0000 0.0000 0.0000
dihedral_coeff  oy7-ay2-oy4-sy1 0.0000 0.0000 0.0000 0.0000 0.0000 0.0000
dihedral_coeff  oy8-ay2-oy4-sy1 0.0000 0.0000 0.0000 0.0000 0.0000 0.0000
dihedral_coeff  oy9-ay2-oy4-sy1 0.0000 0.0000 0.0000 0.0000 0.0000 0.0000
dihedral_coeff  oy5-ay2-oy4-sy1 0.0000 0.0000 0.0000 0.0000 0.0000 0.0000
dihedral_coeff  oy6-ay2-oy4-sy1 0.0000 0.0000 0.0000 0.0000 0.0000 0.0000
dihedral_coeff  oy7-ay2-oy6-hoy 0.0000 0.0000 0.0000 0.0000 0.0000 0.0000
dihedral_coeff  oy7-ay2-oy6-ay1 0.0000 0.0000 0.0000 0.0000 0.0000 0.0000
dihedral_coeff  oy8-ay2-oy6-hoy 0.0000 0.0000 0.0000 0.0000 0.0000 0.0000
dihedral_coeff  oy9-ay2-oy6-hoy 0.0000 0.0000 0.0000 0.0000 0.0000 0.0000
dihedral_coeff  oy5-ay2-oy6-hoy 0.0000 0.0000 0.0000 0.0000 0.0000 0.0000
dihedral_coeff  oy4-ay2-oy6-hoy 0.0000 0.0000 0.0000 0.0000 0.0000 0.0000
dihedral_coeff  oy4-ay2-oy6-ay1 0.0000 0.0000 0.0000 0.0000 0.0000 0.0000
dihedral_coeff  oy2-sy1-oy4-ay1 0.0000 0.0000 0.0000 0.0000 0.0000 0.0000
dihedral_coeff  oy3-sy1-oy4-ay1 0.0000 0.0000 0.0000 0.0000 0.0000 0.0000
dihedral_coeff  oc24-sy1-oy4-ay1 0.0000 0.0000 0.0000 0.0000 0.0000 0.0000
dihedral_coeff  oy4-sy1-oy2-sy2 0.0000 0.0000 0.0000 0.0000 0.0000 0.0000